29
90
78
7
25
55
16
71
41
93
70
4
31
54
13
50
52
35
5
12
34
76
46
99
3
18
43
82
26
97
1
89
62
96
95
11
65
27
59
40
77
15
10
68
39
74
85
32
28
94
14
36
73
45
81
83
48
8
17
98
57
21
87
67
19
61
51
2
44
42
6
79
0
24
37
38
22
63
66
30
64
92
20
86
91
84
56
88
23
47
53
69
58
33
60
72
9
80
75
49
